unsat
(define-fun f ((x (_ BitVec 64))) (_ BitVec 64) (im (bvand #b0000000000000000000000000000000000000000000000000000000000000001 x) (shesh (bvnot x)) #b0000000000000000000000000000000000000000000000000000000000000000))
0.12user 0.00system 0:00.13elapsed 100%CPU (0avgtext+0avgdata 33752maxresident)k
16inputs+8outputs (0major+3070minor)pagefaults 0swaps
